20208
1 0 0 0 0 1 0 0 0 0 0 1 0 1 1 1 0 1 0 0 1 0 0 0 0 1 0 0 0 0 
20 11 20 11 20 11 11 11 20 11 11 20 20 20 11 20 11 11 11 11 11 11 11 11 11 20 11 11 11 11 11 11 20 11 20 20 11 15 20 20 11 20 15 20 15 14 14 20 14 14 15 14 14 5 20 20 14 5 5 14 0 5 20 0 0 0 5 0 5 5 20 20 5 0 5 20 15 20 14 5 20 0 20 0 0 0 0 0 20 5 14 5 0 0 0 5 14 14 5 14 14 0 14 0 14 5 0 0 14 14 14 14 0 0 0 0 5 15 5 5 5 14 14 13 13 15 25 15 25 25 17 25 25 25 13 17 17 25 13 17 17 13 13 17 17 25 25 25 17 25 
